(set-info :smt-lib-version 2.6)
(set-logic QF_NIA)
(set-info :source |AProve team, see http://aprove.informatik.rwth-aachen.de/, submitted for SMT-COMP 2014|)
(set-info :category "industrial")
(set-info :status sat)
(declare-fun b__234 () Int)
(declare-fun a__18 () Int)
(declare-fun a__7 () Int)
(declare-fun a__25 () Int)
(declare-fun a__195 () Int)
(declare-fun b__235 () Int)
(declare-fun a__13 () Int)
(declare-fun a__164 () Int)
(declare-fun a__172 () Int)
(declare-fun a__2 () Int)
(declare-fun a__149 () Int)
(declare-fun a__41 () Int)
(declare-fun a__77 () Int)
(declare-fun a__180 () Int)
(declare-fun a__188 () Int)
(declare-fun a__36 () Int)
(declare-fun a__60 () Int)
(declare-fun a__67 () Int)
(declare-fun b__236 () Int)
(declare-fun b__237 () Int)
(declare-fun b__238 () Int)
(declare-fun a__46 () Int)
(declare-fun a__3 () Int)
(declare-fun a__8 () Int)
(declare-fun a__4 () Int)
(declare-fun a__11 () Int)
(declare-fun a__9 () Int)
(declare-fun a__14 () Int)
(declare-fun a__16 () Int)
(declare-fun a__20 () Int)
(declare-fun a__22 () Int)
(declare-fun a__27 () Int)
(declare-fun a__23 () Int)
(declare-fun a__29 () Int)
(declare-fun a__26 () Int)
(declare-fun a__31 () Int)
(declare-fun a__10 () Int)
(declare-fun a__32 () Int)
(declare-fun a__5 () Int)
(declare-fun a__33 () Int)
(declare-fun a__35 () Int)
(declare-fun a__30 () Int)
(declare-fun a__34 () Int)
(declare-fun a__37 () Int)
(declare-fun a__38 () Int)
(declare-fun a__40 () Int)
(declare-fun a__15 () Int)
(declare-fun a__39 () Int)
(declare-fun a__42 () Int)
(declare-fun a__43 () Int)
(declare-fun a__44 () Int)
(declare-fun a__45 () Int)
(declare-fun a__47 () Int)
(declare-fun a__48 () Int)
(declare-fun a__49 () Int)
(declare-fun a__50 () Int)
(declare-fun a__19 () Int)
(declare-fun a__51 () Int)
(declare-fun a__52 () Int)
(declare-fun a__53 () Int)
(declare-fun a__54 () Int)
(declare-fun a__55 () Int)
(declare-fun a__56 () Int)
(declare-fun a__59 () Int)
(declare-fun a__57 () Int)
(declare-fun a__58 () Int)
(declare-fun a__61 () Int)
(declare-fun a__62 () Int)
(declare-fun a__63 () Int)
(declare-fun a__64 () Int)
(declare-fun a__66 () Int)
(declare-fun a__65 () Int)
(declare-fun a__68 () Int)
(declare-fun a__28 () Int)
(declare-fun a__69 () Int)
(declare-fun a__70 () Int)
(declare-fun a__71 () Int)
(declare-fun a__72 () Int)
(declare-fun a__73 () Int)
(declare-fun a__76 () Int)
(declare-fun a__74 () Int)
(declare-fun a__75 () Int)
(declare-fun a__78 () Int)
(declare-fun a__79 () Int)
(declare-fun a__81 () Int)
(declare-fun a__82 () Int)
(declare-fun a__80 () Int)
(declare-fun a__83 () Int)
(declare-fun a__86 () Int)
(declare-fun a__87 () Int)
(declare-fun a__84 () Int)
(declare-fun a__85 () Int)
(declare-fun a__88 () Int)
(declare-fun a__89 () Int)
(declare-fun a__92 () Int)
(declare-fun a__93 () Int)
(declare-fun a__90 () Int)
(declare-fun a__91 () Int)
(declare-fun a__94 () Int)
(declare-fun a__95 () Int)
(declare-fun a__97 () Int)
(declare-fun a__98 () Int)
(declare-fun a__96 () Int)
(declare-fun a__99 () Int)
(declare-fun a__103 () Int)
(declare-fun a__104 () Int)
(declare-fun a__100 () Int)
(declare-fun a__101 () Int)
(declare-fun a__105 () Int)
(declare-fun a__102 () Int)
(declare-fun a__106 () Int)
(declare-fun a__107 () Int)
(declare-fun a__111 () Int)
(declare-fun a__112 () Int)
(declare-fun a__108 () Int)
(declare-fun a__109 () Int)
(declare-fun a__113 () Int)
(declare-fun a__110 () Int)
(declare-fun a__114 () Int)
(declare-fun a__115 () Int)
(declare-fun a__119 () Int)
(declare-fun a__120 () Int)
(declare-fun a__116 () Int)
(declare-fun a__117 () Int)
(declare-fun a__121 () Int)
(declare-fun a__118 () Int)
(declare-fun a__122 () Int)
(declare-fun a__123 () Int)
(declare-fun a__127 () Int)
(declare-fun a__128 () Int)
(declare-fun a__124 () Int)
(declare-fun a__125 () Int)
(declare-fun a__129 () Int)
(declare-fun a__126 () Int)
(declare-fun a__130 () Int)
(declare-fun a__131 () Int)
(declare-fun a__134 () Int)
(declare-fun a__135 () Int)
(declare-fun a__132 () Int)
(declare-fun a__133 () Int)
(declare-fun a__136 () Int)
(declare-fun a__137 () Int)
(declare-fun a__139 () Int)
(declare-fun a__140 () Int)
(declare-fun a__138 () Int)
(declare-fun a__141 () Int)
(declare-fun a__143 () Int)
(declare-fun a__142 () Int)
(declare-fun a__144 () Int)
(declare-fun a__145 () Int)
(declare-fun a__148 () Int)
(declare-fun a__146 () Int)
(declare-fun a__147 () Int)
(declare-fun a__150 () Int)
(declare-fun a__151 () Int)
(declare-fun a__153 () Int)
(declare-fun a__154 () Int)
(declare-fun a__152 () Int)
(declare-fun a__155 () Int)
(declare-fun a__156 () Int)
(declare-fun a__157 () Int)
(declare-fun a__158 () Int)
(declare-fun a__159 () Int)
(declare-fun a__163 () Int)
(declare-fun a__160 () Int)
(declare-fun a__161 () Int)
(declare-fun a__165 () Int)
(declare-fun a__162 () Int)
(declare-fun a__166 () Int)
(declare-fun a__167 () Int)
(declare-fun a__171 () Int)
(declare-fun a__168 () Int)
(declare-fun a__169 () Int)
(declare-fun a__173 () Int)
(declare-fun a__170 () Int)
(declare-fun a__174 () Int)
(declare-fun a__175 () Int)
(declare-fun a__179 () Int)
(declare-fun a__176 () Int)
(declare-fun a__177 () Int)
(declare-fun a__181 () Int)
(declare-fun a__178 () Int)
(declare-fun a__182 () Int)
(declare-fun a__183 () Int)
(declare-fun a__187 () Int)
(declare-fun a__184 () Int)
(declare-fun a__185 () Int)
(declare-fun a__189 () Int)
(declare-fun a__186 () Int)
(declare-fun a__190 () Int)
(declare-fun a__191 () Int)
(declare-fun a__194 () Int)
(declare-fun a__192 () Int)
(declare-fun a__193 () Int)
(declare-fun a__196 () Int)
(declare-fun a__197 () Int)
(declare-fun a__199 () Int)
(declare-fun a__200 () Int)
(declare-fun a__198 () Int)
(declare-fun a__201 () Int)
(declare-fun a__205 () Int)
(declare-fun a__206 () Int)
(declare-fun a__202 () Int)
(declare-fun a__203 () Int)
(declare-fun a__207 () Int)
(declare-fun a__204 () Int)
(declare-fun a__208 () Int)
(declare-fun a__209 () Int)
(declare-fun a__213 () Int)
(declare-fun a__214 () Int)
(declare-fun a__210 () Int)
(declare-fun a__211 () Int)
(declare-fun a__215 () Int)
(declare-fun a__212 () Int)
(declare-fun a__216 () Int)
(declare-fun a__217 () Int)
(declare-fun a__221 () Int)
(declare-fun a__222 () Int)
(declare-fun a__218 () Int)
(declare-fun a__219 () Int)
(declare-fun a__223 () Int)
(declare-fun a__220 () Int)
(declare-fun a__224 () Int)
(declare-fun a__225 () Int)
(declare-fun a__228 () Int)
(declare-fun a__229 () Int)
(declare-fun a__226 () Int)
(declare-fun a__227 () Int)
(declare-fun a__230 () Int)
(declare-fun a__231 () Int)
(declare-fun a__232 () Int)
(declare-fun a__21 () Int)
(declare-fun a__233 () Int)
(declare-fun a__1 () Int)
(declare-fun a__6 () Int)
(declare-fun a__12 () Int)
(declare-fun a__17 () Int)
(declare-fun a__24 () Int)
(assert (and (>= (+ 1 (* (- 0 1) b__234)) 0) (= (+ (* b__234 a__18) (* (- 0 1) a__18)) 0) (= (+ (* b__234 a__7) (* (- 0 1) a__7)) 0) (= (+ (* b__234 a__25 a__195) (* (- 0 1) (* a__25 a__195))) 0) (>= (+ 1 (* (- 0 1) b__235)) 0) (= (+ (* b__235 a__18) (* (- 0 1) a__18)) 0) (= (+ (* b__235 a__13) (* (- 0 1) a__13)) 0) (= (+ (* b__235 a__25 a__164) (* (- 0 1) (* a__25 a__164))) 0) (= (+ (* b__235 a__25 a__172) (* (- 0 1) (* a__25 a__172))) 0) (= (+ (* b__235 a__2 a__149) (* (- 0 1) (* a__2 a__149))) 0) (= (+ (* b__235 a__7 a__41) (* (- 0 1) (* a__7 a__41))) 0) (= (+ (* b__235 a__7 a__77) (* (- 0 1) (* a__7 a__77))) 0) (= (+ (* b__235 a__25 a__41 a__195) (* (- 0 1) (* a__25 a__41 a__195))) 0) (= (+ (* b__235 a__25 a__77 a__195) (* (- 0 1) (* a__25 a__77 a__195))) 0) (= (+ (* b__235 a__25 a__149 a__180) (* (- 0 1) (* a__25 a__149 a__180))) 0) (= (+ (* b__235 a__25 a__149 a__188) (* (- 0 1) (* a__25 a__149 a__188))) 0) (= (+ (* b__235 a__7 a__36 a__149) (* (- 0 1) (* a__7 a__36 a__149))) 0) (= (+ (* b__235 a__7 a__60 a__149) (* (- 0 1) (* a__7 a__60 a__149))) 0) (= (+ (* b__235 a__7 a__67 a__164) (* (- 0 1) (* a__7 a__67 a__164))) 0) (= (+ (* b__235 a__7 a__67 a__172) (* (- 0 1) (* a__7 a__67 a__172))) 0) (= (+ (* b__235 a__25 a__36 a__149 a__195) (* (- 0 1) (* a__25 a__36 a__149 a__195))) 0) (= (+ (* b__235 a__25 a__60 a__149 a__195) (* (- 0 1) (* a__25 a__60 a__149 a__195))) 0) (= (+ (* b__235 a__7 a__67 a__149 a__180) (* (- 0 1) (* a__7 a__67 a__149 a__180))) 0) (= (+ (* b__235 a__7 a__67 a__149 a__188) (* (- 0 1) (* a__7 a__67 a__149 a__188))) 0) (>= (+ 1 (* (- 0 1) b__236)) 0) (= (+ (* b__236 a__18) (* (- 0 1) a__18)) 0) (>= (+ 1 (* (- 0 1) b__237)) 0) (= (+ (* b__237 a__18) (* (- 0 1) a__18)) 0) (= (+ (* b__237 a__25) (* (- 0 1) a__25)) 0) (= (+ (* b__237 a__7 a__67) (* (- 0 1) (* a__7 a__67))) 0) (>= (+ 1 (* (- 0 1) b__238)) 0) (= (+ (* b__238 a__18) (* (- 0 1) a__18)) 0) (= (+ (* b__238 a__2) (* (- 0 1) a__2)) 0) (= (+ (* b__238 a__25 a__180) (* (- 0 1) (* a__25 a__180))) 0) (= (+ (* b__238 a__25 a__188) (* (- 0 1) (* a__25 a__188))) 0) (= (+ (* b__238 a__7 a__36) (* (- 0 1) (* a__7 a__36))) 0) (= (+ (* b__238 a__7 a__60) (* (- 0 1) (* a__7 a__60))) 0) (= (+ (* b__238 a__13 a__46) (* (- 0 1) (* a__13 a__46))) 0) (= (+ (* b__238 a__25 a__36 a__195) (* (- 0 1) (* a__25 a__36 a__195))) 0) (= (+ (* b__238 a__25 a__60 a__195) (* (- 0 1) (* a__25 a__60 a__195))) 0) (= (+ (* b__238 a__25 a__46 a__164) (* (- 0 1) (* a__25 a__46 a__164))) 0) (= (+ (* b__238 a__25 a__46 a__172) (* (- 0 1) (* a__25 a__46 a__172))) 0) (= (+ (* b__238 a__7 a__67 a__180) (* (- 0 1) (* a__7 a__67 a__180))) 0) (= (+ (* b__238 a__7 a__67 a__188) (* (- 0 1) (* a__7 a__67 a__188))) 0) (= (+ (* b__238 a__7 a__41 a__46) (* (- 0 1) (* a__7 a__41 a__46))) 0) (= (+ (* b__238 a__7 a__77 a__46) (* (- 0 1) (* a__7 a__77 a__46))) 0) (= (+ (* b__238 a__25 a__41 a__46 a__195) (* (- 0 1) (* a__25 a__41 a__46 a__195))) 0) (= (+ (* b__238 a__25 a__77 a__46 a__195) (* (- 0 1) (* a__25 a__77 a__46 a__195))) 0) (= (+ (* b__238 a__7 a__67 a__46 a__164) (* (- 0 1) (* a__7 a__67 a__46 a__164))) 0) (= (+ (* b__238 a__7 a__67 a__46 a__172) (* (- 0 1) (* a__7 a__67 a__46 a__172))) 0) (>= (+ a__3 (* (- 0 1) a__8)) 0) (>= (+ a__4 (* (- 0 1) (* a__11 a__7)) (* (- 0 1) a__9)) 0) (>= (+ a__8 (* (- 0 1) a__14)) 0) (>= (+ a__9 (* (- 0 1) (* a__16 a__13))) 0) (>= (+ a__14 (* (- 0 1) (* a__20 a__18))) 0) (>= (+ (* a__22 a__18) (* (- 0 1) a__27)) 0) (>= (+ (* a__23 a__18) (* (- 0 1) (* a__29 a__25)) (* (- 0 1) a__26)) 0) (>= (+ a__26 (* (- 0 1) (* a__31 a__2)) (* (- 0 1) a__3)) 0) (>= (+ a__27 (* (- 0 1) a__4)) 0) (>= (+ (* b__234 a__10) (* b__234 a__32 a__11) (* (- 0 1) (* b__234 a__5))) 0) (>= (+ (* b__234 a__10) (* b__234 a__33 a__11) (* (- 0 1) (* b__234 a__35)) (* (- 0 1) (* b__234 a__30 a__36))) 0) (>= (+ (* b__234 a__34 a__11) (* (- 0 1) (* b__234 a__31 a__36)) (* (- 0 1) (* b__234 a__37))) 0) (>= (+ (* b__234 a__10) (* b__234 a__38 a__11) (* (- 0 1) (* b__234 a__40)) (* (- 0 1) (* b__234 a__15 a__41))) 0) (>= (+ (* b__234 a__39 a__11) (* (- 0 1) (* b__234 a__16 a__41)) (* (- 0 1) (* b__234 a__42))) 0) (>= (+ (* b__234 a__10) (* (- 0 1) (* b__234 a__43))) 0) (>= (+ (* b__234 a__11) (* (- 0 1) (* b__234 a__44))) 0) (>= (+ (* b__235 a__15) (* b__235 a__32 a__16) (* (- 0 1) (* b__235 a__5))) 0) (>= (+ (* b__235 a__15) (* b__235 a__33 a__16) (* (- 0 1) (* b__235 a__45)) (* (- 0 1) (* b__235 a__30 a__46))) 0) (>= (+ (* b__235 a__34 a__16) (* (- 0 1) (* b__235 a__31 a__46))) 0) (>= (+ (* b__235 a__15) (* b__235 a__38 a__16) (* (- 0 1) (* b__235 a__47)) (* (- 0 1) (* b__235 a__15 a__48))) 0) (>= (+ (* b__235 a__39 a__16) (* (- 0 1) (* b__235 a__16 a__48))) 0) (>= (+ (* b__235 a__15) (* (- 0 1) (* b__235 a__49))) 0) (>= (+ (* b__235 a__16) (* (- 0 1) (* b__235 a__50))) 0) (>= (+ (* b__236 a__19) (* b__236 a__51 a__20) (* (- 0 1) (* b__236 a__52))) 0) (>= (+ (* b__236 a__19) (* b__236 a__53 a__20) (* (- 0 1) (* b__236 a__35)) (* (- 0 1) (* b__236 a__19 a__36))) 0) (>= (+ (* b__236 a__54 a__20) (* (- 0 1) (* b__236 a__20 a__36))) 0) (>= (+ (* b__236 a__55 a__20) (* (- 0 1) (* b__236 a__37))) 0) (>= (+ (* b__236 a__19) (* b__236 a__56 a__20) (* (- 0 1) (* b__236 a__59)) (* (- 0 1) (* b__236 a__19 a__60))) 0) (>= (+ (* b__236 a__57 a__20) (* (- 0 1) (* b__236 a__20 a__60))) 0) (>= (+ (* b__236 a__58 a__20) (* (- 0 1) (* b__236 a__61))) 0) (>= (+ (* b__236 a__19) (* b__236 a__62 a__20) (* (- 0 1) (* b__236 a__30))) 0) (>= (+ (* b__236 a__63 a__20) (* (- 0 1) (* b__236 a__31))) 0) (>= (+ (* b__236 a__19) (* b__236 a__64 a__20) (* (- 0 1) (* b__236 a__66)) (* (- 0 1) (* b__236 a__19 a__67))) 0) (>= (+ (* b__236 a__65 a__20) (* (- 0 1) (* b__236 a__20 a__67))) 0) (>= (+ (* b__236 a__19) (* b__236 a__68 a__20) (* (- 0 1) (* b__236 a__28))) 0) (>= (+ (* b__236 a__69 a__20) (* (- 0 1) (* b__236 a__29))) 0) (>= (+ (* b__236 a__19) (* b__236 a__70 a__20) (* (- 0 1) (* b__236 a__40)) (* (- 0 1) (* b__236 a__19 a__41))) 0) (>= (+ (* b__236 a__71 a__20) (* (- 0 1) (* b__236 a__20 a__41))) 0) (>= (+ (* b__236 a__72 a__20) (* (- 0 1) (* b__236 a__42))) 0) (>= (+ (* b__236 a__19) (* b__236 a__73 a__20) (* (- 0 1) (* b__236 a__76)) (* (- 0 1) (* b__236 a__19 a__77))) 0) (>= (+ (* b__236 a__74 a__20) (* (- 0 1) (* b__236 a__20 a__77))) 0) (>= (+ (* b__236 a__75 a__20) (* (- 0 1) (* b__236 a__78))) 0) (>= (+ (* b__236 a__19) (* b__236 a__49 a__20) (* (- 0 1) (* b__236 a__15))) 0) (>= (+ (* b__236 a__50 a__20) (* (- 0 1) (* b__236 a__16))) 0) (>= (+ (* b__236 a__19) (* b__236 a__79 a__20) (* (- 0 1) (* b__236 a__81)) (* (- 0 1) (* b__236 a__19 a__82))) 0) (>= (+ (* b__236 a__80 a__20) (* (- 0 1) (* b__236 a__20 a__82))) 0) (>= (+ (* b__236 a__19) (* b__236 a__43 a__20) (* (- 0 1) (* b__236 a__10))) 0) (>= (+ (* b__236 a__44 a__20) (* (- 0 1) (* b__236 a__11))) 0) (>= (+ (* b__236 a__19) (* b__236 a__83 a__20) (* (- 0 1) (* b__236 a__86)) (* (- 0 1) (* b__236 a__19 a__87))) 0) (>= (+ (* b__236 a__84 a__20) (* (- 0 1) (* b__236 a__20 a__87))) 0) (>= (+ (* b__236 a__85 a__20) (* (- 0 1) (* b__236 a__88))) 0) (>= (+ (* b__236 a__19) (* b__236 a__89 a__20) (* (- 0 1) (* b__236 a__92)) (* (- 0 1) (* b__236 a__19 a__93))) 0) (>= (+ (* b__236 a__90 a__20) (* (- 0 1) (* b__236 a__20 a__93))) 0) (>= (+ (* b__236 a__91 a__20) (* (- 0 1) (* b__236 a__94))) 0) (>= (+ (* b__236 a__19) (* b__236 a__95 a__20) (* (- 0 1) (* b__236 a__97)) (* (- 0 1) (* b__236 a__19 a__98))) 0) (>= (+ (* b__236 a__96 a__20) (* (- 0 1) (* b__236 a__20 a__98))) 0) (>= (+ (* b__236 a__19) (* b__236 a__99 a__20) (* (- 0 1) (* b__236 a__103)) (* (- 0 1) (* b__236 a__19 a__104))) 0) (>= (+ (* b__236 a__100 a__20) (* (- 0 1) (* b__236 a__20 a__104))) 0) (>= (+ (* b__236 a__101 a__20) (* (- 0 1) (* b__236 a__105))) 0) (>= (+ (* b__236 a__102 a__20) (* (- 0 1) (* b__236 a__106))) 0) (>= (+ (* b__236 a__19) (* b__236 a__107 a__20) (* (- 0 1) (* b__236 a__111)) (* (- 0 1) (* b__236 a__19 a__112))) 0) (>= (+ (* b__236 a__108 a__20) (* (- 0 1) (* b__236 a__20 a__112))) 0) (>= (+ (* b__236 a__109 a__20) (* (- 0 1) (* b__236 a__113))) 0) (>= (+ (* b__236 a__110 a__20) (* (- 0 1) (* b__236 a__114))) 0) (>= (+ (* b__236 a__19) (* b__236 a__115 a__20) (* (- 0 1) (* b__236 a__119)) (* (- 0 1) (* b__236 a__19 a__120))) 0) (>= (+ (* b__236 a__116 a__20) (* (- 0 1) (* b__236 a__20 a__120))) 0) (>= (+ (* b__236 a__117 a__20) (* (- 0 1) (* b__236 a__121))) 0) (>= (+ (* b__236 a__118 a__20) (* (- 0 1) (* b__236 a__122))) 0) (>= (+ (* b__236 a__19) (* b__236 a__123 a__20) (* (- 0 1) (* b__236 a__127)) (* (- 0 1) (* b__236 a__19 a__128))) 0) (>= (+ (* b__236 a__124 a__20) (* (- 0 1) (* b__236 a__20 a__128))) 0) (>= (+ (* b__236 a__125 a__20) (* (- 0 1) (* b__236 a__129))) 0) (>= (+ (* b__236 a__126 a__20) (* (- 0 1) (* b__236 a__130))) 0) (>= (+ (* b__236 a__19) (* b__236 a__131 a__20) (* (- 0 1) (* b__236 a__134)) (* (- 0 1) (* b__236 a__19 a__135))) 0) (>= (+ (* b__236 a__132 a__20) (* (- 0 1) (* b__236 a__20 a__135))) 0) (>= (+ (* b__236 a__133 a__20) (* (- 0 1) (* b__236 a__136))) 0) (>= (+ (* b__236 a__19) (* b__236 a__137 a__20) (* (- 0 1) (* b__236 a__139)) (* (- 0 1) (* b__236 a__19 a__140))) 0) (>= (+ (* b__236 a__138 a__20) (* (- 0 1) (* b__236 a__20 a__140))) 0) (>= (+ (* b__236 a__19) (* b__236 a__141 a__20) (* (- 0 1) (* b__236 a__143))) 0) (>= (+ (* b__236 a__142 a__20) (* (- 0 1) (* b__236 a__144))) 0) (>= (+ (* b__236 a__19) (* b__236 a__145 a__20) (* (- 0 1) (* b__236 a__148)) (* (- 0 1) (* b__236 a__19 a__149))) 0) (>= (+ (* b__236 a__146 a__20) (* (- 0 1) (* b__236 a__20 a__149))) 0) (>= (+ (* b__236 a__147 a__20) (* (- 0 1) (* b__236 a__150))) 0) (>= (+ (* b__236 a__19) (* b__236 a__151 a__20) (* (- 0 1) (* b__236 a__153)) (* (- 0 1) (* b__236 a__19 a__154))) 0) (>= (+ (* b__236 a__152 a__20) (* (- 0 1) (* b__236 a__20 a__154))) 0) (>= (+ (* b__236 a__19) (* b__236 a__155 a__20) (* (- 0 1) (* b__236 a__45)) (* (- 0 1) (* b__236 a__19 a__46))) 0) (>= (+ (* b__236 a__156 a__20) (* (- 0 1) (* b__236 a__20 a__46))) 0) (>= (+ (* b__236 a__19) (* b__236 a__157 a__20) (* (- 0 1) (* b__236 a__47)) (* (- 0 1) (* b__236 a__19 a__48))) 0) (>= (+ (* b__236 a__158 a__20) (* (- 0 1) (* b__236 a__20 a__48))) 0) (>= (+ (* b__236 a__19) (* b__236 a__159 a__20) (* (- 0 1) (* b__236 a__163)) (* (- 0 1) (* b__236 a__19 a__164))) 0) (>= (+ (* b__236 a__160 a__20) (* (- 0 1) (* b__236 a__20 a__164))) 0) (>= (+ (* b__236 a__161 a__20) (* (- 0 1) (* b__236 a__165))) 0) (>= (+ (* b__236 a__162 a__20) (* (- 0 1) (* b__236 a__166))) 0) (>= (+ (* b__236 a__19) (* b__236 a__167 a__20) (* (- 0 1) (* b__236 a__171)) (* (- 0 1) (* b__236 a__19 a__172))) 0) (>= (+ (* b__236 a__168 a__20) (* (- 0 1) (* b__236 a__20 a__172))) 0) (>= (+ (* b__236 a__169 a__20) (* (- 0 1) (* b__236 a__173))) 0) (>= (+ (* b__236 a__170 a__20) (* (- 0 1) (* b__236 a__174))) 0) (>= (+ (* b__236 a__19) (* b__236 a__175 a__20) (* (- 0 1) (* b__236 a__179)) (* (- 0 1) (* b__236 a__19 a__180))) 0) (>= (+ (* b__236 a__176 a__20) (* (- 0 1) (* b__236 a__20 a__180))) 0) (>= (+ (* b__236 a__177 a__20) (* (- 0 1) (* b__236 a__181))) 0) (>= (+ (* b__236 a__178 a__20) (* (- 0 1) (* b__236 a__182))) 0) (>= (+ (* b__236 a__19) (* b__236 a__183 a__20) (* (- 0 1) (* b__236 a__187)) (* (- 0 1) (* b__236 a__19 a__188))) 0) (>= (+ (* b__236 a__184 a__20) (* (- 0 1) (* b__236 a__20 a__188))) 0) (>= (+ (* b__236 a__185 a__20) (* (- 0 1) (* b__236 a__189))) 0) (>= (+ (* b__236 a__186 a__20) (* (- 0 1) (* b__236 a__190))) 0) (>= (+ (* b__236 a__19) (* b__236 a__191 a__20) (* (- 0 1) (* b__236 a__194)) (* (- 0 1) (* b__236 a__19 a__195))) 0) (>= (+ (* b__236 a__192 a__20) (* (- 0 1) (* b__236 a__20 a__195))) 0) (>= (+ (* b__236 a__193 a__20) (* (- 0 1) (* b__236 a__196))) 0) (>= (+ (* b__236 a__19) (* b__236 a__197 a__20) (* (- 0 1) (* b__236 a__199)) (* (- 0 1) (* b__236 a__19 a__200))) 0) (>= (+ (* b__236 a__198 a__20) (* (- 0 1) (* b__236 a__20 a__200))) 0) (>= (+ (* b__236 a__19) (* b__236 a__201 a__20) (* (- 0 1) (* b__236 a__205)) (* (- 0 1) (* b__236 a__19 a__206))) 0) (>= (+ (* b__236 a__202 a__20) (* (- 0 1) (* b__236 a__20 a__206))) 0) (>= (+ (* b__236 a__203 a__20) (* (- 0 1) (* b__236 a__207))) 0) (>= (+ (* b__236 a__204 a__20) (* (- 0 1) (* b__236 a__208))) 0) (>= (+ (* b__236 a__19) (* b__236 a__209 a__20) (* (- 0 1) (* b__236 a__213)) (* (- 0 1) (* b__236 a__19 a__214))) 0) (>= (+ (* b__236 a__210 a__20) (* (- 0 1) (* b__236 a__20 a__214))) 0) (>= (+ (* b__236 a__211 a__20) (* (- 0 1) (* b__236 a__215))) 0) (>= (+ (* b__236 a__212 a__20) (* (- 0 1) (* b__236 a__216))) 0) (>= (+ (* b__236 a__19) (* b__236 a__217 a__20) (* (- 0 1) (* b__236 a__221)) (* (- 0 1) (* b__236 a__19 a__222))) 0) (>= (+ (* b__236 a__218 a__20) (* (- 0 1) (* b__236 a__20 a__222))) 0) (>= (+ (* b__236 a__219 a__20) (* (- 0 1) (* b__236 a__223))) 0) (>= (+ (* b__236 a__220 a__20) (* (- 0 1) (* b__236 a__224))) 0) (>= (+ (* b__236 a__19) (* b__236 a__225 a__20) (* (- 0 1) (* b__236 a__228)) (* (- 0 1) (* b__236 a__19 a__229))) 0) (>= (+ (* b__236 a__226 a__20) (* (- 0 1) (* b__236 a__20 a__229))) 0) (>= (+ (* b__236 a__227 a__20) (* (- 0 1) (* b__236 a__230))) 0) (>= (+ (* b__236 a__19) (* b__236 a__33 a__20) (* (- 0 1) (* b__236 a__231)) (* (- 0 1) (* b__236 a__19 a__232))) 0) (>= (+ (* b__236 a__34 a__20) (* (- 0 1) (* b__236 a__20 a__232))) 0) (>= (+ (* b__236 a__19) (* b__236 a__21 a__20) (* (- 0 1) (* b__236 a__21)) (* (- 0 1) (* b__236 a__19 a__22))) 0) (>= (+ (* b__236 a__23 a__20) (* (- 0 1) (* b__236 a__23))) 0) (>= (+ (* b__236 a__19) (* b__236 a__32 a__20) (* (- 0 1) (* b__236 a__32))) 0) (>= (+ (* b__236 a__19) (* b__236 a__5 a__20) (* (- 0 1) (* b__236 a__5))) 0) (>= (+ (* b__236 a__19) (* b__236 a__38 a__20) (* (- 0 1) (* b__236 a__38)) (* (- 0 1) (* b__236 a__19 a__39))) 0) (>= (+ (* b__236 a__19) (* b__236 a__233 a__20) (* (- 0 1) (* b__236 a__233))) 0) (>= (+ (* b__237 a__28) (* b__237 a__233 a__29) (* (- 0 1) (* b__237 a__5))) 0) (>= (+ (* b__237 a__28) (* b__237 a__21 a__29) (* (- 0 1) (* b__237 a__163)) (* (- 0 1) (* b__237 a__15 a__164))) 0) (>= (+ (* b__237 a__22 a__29) (* (- 0 1) (* b__237 a__16 a__164)) (* (- 0 1) (* b__237 a__165))) 0) (>= (+ (* b__237 a__23 a__29) (* (- 0 1) (* b__237 a__166))) 0) (>= (+ (* b__237 a__28) (* (- 0 1) (* b__237 a__68))) 0) (>= (+ (* b__237 a__29) (* (- 0 1) (* b__237 a__69))) 0) (>= (+ (* b__238 a__30) (* b__238 a__233 a__31) (* (- 0 1) (* b__238 a__5))) 0) (>= (+ (* b__238 a__30) (* b__238 a__51 a__31) (* (- 0 1) (* b__238 a__5))) 0) (>= (+ (* b__238 a__30) (* b__238 a__21 a__31) (* (- 0 1) (* b__238 a__148)) (* (- 0 1) (* b__238 a__15 a__149))) 0) (>= (+ (* b__238 a__22 a__31) (* (- 0 1) (* b__238 a__16 a__149))) 0) (>= (+ (* b__238 a__23 a__31) (* (- 0 1) (* b__238 a__150))) 0) (>= (+ (* b__238 a__30) (* (- 0 1) (* b__238 a__62))) 0) (>= (+ (* b__238 a__31) (* (- 0 1) (* b__238 a__63))) 0) (>= (+ (* b__236 a__205) (* b__236 a__5 a__206) (* (- 0 1) (* b__236 a__213)) (* (- 0 1) (* b__236 a__30 a__214))) 0) (>= (+ (* b__236 a__207) (* (- 0 1) (* b__236 a__31 a__214)) (* (- 0 1) (* b__236 a__215))) 0) (>= (+ (* b__236 a__208) (* (- 0 1) (* b__236 a__216))) 0) (>= (+ (* b__236 a__213) (* b__236 a__5 a__214) (* (- 0 1) (* b__236 a__221)) (* (- 0 1) (* b__236 a__10 a__222))) 0) (>= (+ (* b__236 a__215) (* (- 0 1) (* b__236 a__223))) 0) (>= (+ (* b__236 a__216) (* (- 0 1) (* b__236 a__11 a__222)) (* (- 0 1) (* b__236 a__224))) 0) (>= (+ (* b__236 a__221) (* b__236 a__5 a__222) (* (- 0 1) (* b__236 a__228)) (* (- 0 1) (* b__236 a__15 a__229))) 0) (>= (+ (* b__236 a__223) (* (- 0 1) (* b__236 a__230))) 0) (>= (+ (* b__236 a__224) (* (- 0 1) (* b__236 a__16 a__229))) 0) (>= (+ (* b__236 a__228) (* b__236 a__5 a__229) (* (- 0 1) (* b__236 a__38)) (* (- 0 1) (* b__236 a__231 a__39)) (* (- 0 1) (* b__236 a__19 a__232 a__39))) 0) (>= (+ (* b__236 a__230) (* (- 0 1) (* b__236 a__20 a__232 a__39))) 0) (>= (+ (* b__236 a__231) (* b__236 a__21 a__232) (* (- 0 1) (* b__236 a__205)) (* (- 0 1) (* b__236 a__28 a__206))) 0) (>= (+ (* b__236 a__22 a__232) (* (- 0 1) (* b__236 a__208))) 0) (>= (+ (* b__236 a__23 a__232) (* (- 0 1) (* b__236 a__29 a__206)) (* (- 0 1) (* b__236 a__207))) 0) (>= (+ (* b__234 a__35) (* b__234 a__5 a__36) (* (- 0 1) (* b__234 a__59)) (* (- 0 1) (* b__234 a__30 a__60))) 0) (>= (+ (* b__234 a__37) (* (- 0 1) (* b__234 a__31 a__60)) (* (- 0 1) (* b__234 a__61))) 0) (>= (+ (* b__234 a__35) (* (- 0 1) (* b__234 a__53))) 0) (>= (+ (* b__234 a__36) (* (- 0 1) (* b__234 a__54))) 0) (>= (+ (* b__234 a__37) (* (- 0 1) (* b__234 a__55))) 0) (>= (+ (* b__234 a__59) (* b__234 a__5 a__60) (* (- 0 1) (* b__234 a__66)) (* (- 0 1) (* b__234 a__28 a__67))) 0) (>= (+ (* b__234 a__61) (* (- 0 1) (* b__234 a__29 a__67))) 0) (>= (+ (* b__234 a__59) (* (- 0 1) (* b__234 a__56))) 0) (>= (+ (* b__234 a__60) (* (- 0 1) (* b__234 a__57))) 0) (>= (+ (* b__234 a__61) (* (- 0 1) (* b__234 a__58))) 0) (>= (+ (* b__234 a__66) (* b__234 a__5 a__67) (* (- 0 1) (* b__234 a__5))) 0) (>= (+ (* b__234 a__66) (* (- 0 1) (* b__234 a__64))) 0) (>= (+ (* b__234 a__67) (* (- 0 1) (* b__234 a__65))) 0) (>= (+ (* b__234 a__40) (* b__234 a__5 a__41) (* (- 0 1) (* b__234 a__76)) (* (- 0 1) (* b__234 a__15 a__77))) 0) (>= (+ (* b__234 a__42) (* (- 0 1) (* b__234 a__16 a__77)) (* (- 0 1) (* b__234 a__78))) 0) (>= (+ (* b__234 a__40) (* (- 0 1) (* b__234 a__70))) 0) (>= (+ (* b__234 a__41) (* (- 0 1) (* b__234 a__71))) 0) (>= (+ (* b__234 a__42) (* (- 0 1) (* b__234 a__72))) 0) (>= (+ (* b__234 a__76) (* b__234 a__5 a__77) (* (- 0 1) (* b__234 a__81)) (* (- 0 1) (* b__234 a__10 a__82))) 0) (>= (+ (* b__234 a__78) (* (- 0 1) (* b__234 a__11 a__82))) 0) (>= (+ (* b__234 a__76) (* (- 0 1) (* b__234 a__73))) 0) (>= (+ (* b__234 a__77) (* (- 0 1) (* b__234 a__74))) 0) (>= (+ (* b__234 a__78) (* (- 0 1) (* b__234 a__75))) 0) (>= (+ (* b__234 a__81) (* b__234 a__5 a__82) (* (- 0 1) (* b__234 a__5))) 0) (>= (+ (* b__234 a__81) (* (- 0 1) (* b__234 a__79))) 0) (>= (+ (* b__234 a__82) (* (- 0 1) (* b__234 a__80))) 0) (>= (+ (* b__236 a__86) (* b__236 a__5 a__87) (* (- 0 1) (* b__236 a__92)) (* (- 0 1) (* b__236 a__30 a__93))) 0) (>= (+ (* b__236 a__88) (* (- 0 1) (* b__236 a__31 a__93)) (* (- 0 1) (* b__236 a__94))) 0) (>= (+ (* b__236 a__86) (* (- 0 1) (* b__236 a__83))) 0) (>= (+ (* b__236 a__87) (* (- 0 1) (* b__236 a__84))) 0) (>= (+ (* b__236 a__88) (* (- 0 1) (* b__236 a__85))) 0) (>= (+ (* b__236 a__92) (* b__236 a__5 a__93) (* (- 0 1) (* b__236 a__97)) (* (- 0 1) (* b__236 a__28 a__98))) 0) (>= (+ (* b__236 a__94) (* (- 0 1) (* b__236 a__29 a__98))) 0) (>= (+ (* b__236 a__92) (* (- 0 1) (* b__236 a__89))) 0) (>= (+ (* b__236 a__93) (* (- 0 1) (* b__236 a__90))) 0) (>= (+ (* b__236 a__94) (* (- 0 1) (* b__236 a__91))) 0) (>= (+ (* b__236 a__97) (* b__236 a__5 a__98) (* (- 0 1) (* b__236 a__5))) 0) (>= (+ (* b__236 a__97) (* (- 0 1) (* b__236 a__95))) 0) (>= (+ (* b__236 a__98) (* (- 0 1) (* b__236 a__96))) 0) (>= (+ (* b__236 a__103) (* b__236 a__5 a__104) (* (- 0 1) (* b__236 a__111)) (* (- 0 1) (* b__236 a__15 a__112))) 0) (>= (+ (* b__236 a__105) (* (- 0 1) (* b__236 a__16 a__112)) (* (- 0 1) (* b__236 a__113))) 0) (>= (+ (* b__236 a__106) (* (- 0 1) (* b__236 a__114))) 0) (>= (+ (* b__236 a__103) (* (- 0 1) (* b__236 a__99))) 0) (>= (+ (* b__236 a__104) (* (- 0 1) (* b__236 a__100))) 0) (>= (+ (* b__236 a__105) (* (- 0 1) (* b__236 a__101))) 0) (>= (+ (* b__236 a__106) (* (- 0 1) (* b__236 a__102))) 0) (>= (+ (* b__236 a__111) (* b__236 a__5 a__112) (* (- 0 1) (* b__236 a__119)) (* (- 0 1) (* b__236 a__30 a__120))) 0) (>= (+ (* b__236 a__113) (* (- 0 1) (* b__236 a__121))) 0) (>= (+ (* b__236 a__114) (* (- 0 1) (* b__236 a__31 a__120)) (* (- 0 1) (* b__236 a__122))) 0) (>= (+ (* b__236 a__111) (* (- 0 1) (* b__236 a__107))) 0) (>= (+ (* b__236 a__112) (* (- 0 1) (* b__236 a__108))) 0) (>= (+ (* b__236 a__113) (* (- 0 1) (* b__236 a__109))) 0) (>= (+ (* b__236 a__114) (* (- 0 1) (* b__236 a__110))) 0) (>= (+ (* b__236 a__119) (* b__236 a__5 a__120) (* (- 0 1) (* b__236 a__127)) (* (- 0 1) (* b__236 a__30 a__128))) 0) (>= (+ (* b__236 a__121) (* (- 0 1) (* b__236 a__129))) 0) (>= (+ (* b__236 a__122) (* (- 0 1) (* b__236 a__31 a__128)) (* (- 0 1) (* b__236 a__130))) 0) (>= (+ (* b__236 a__119) (* (- 0 1) (* b__236 a__115))) 0) (>= (+ (* b__236 a__120) (* (- 0 1) (* b__236 a__116))) 0) (>= (+ (* b__236 a__121) (* (- 0 1) (* b__236 a__117))) 0) (>= (+ (* b__236 a__122) (* (- 0 1) (* b__236 a__118))) 0) (>= (+ (* b__236 a__127) (* b__236 a__5 a__128) (* (- 0 1) (* b__236 a__134)) (* (- 0 1) (* b__236 a__10 a__135))) 0) (>= (+ (* b__236 a__129) (* (- 0 1) (* b__236 a__11 a__135))) 0) (>= (+ (* b__236 a__130) (* (- 0 1) (* b__236 a__136))) 0) (>= (+ (* b__236 a__127) (* (- 0 1) (* b__236 a__123))) 0) (>= (+ (* b__236 a__128) (* (- 0 1) (* b__236 a__124))) 0) (>= (+ (* b__236 a__129) (* (- 0 1) (* b__236 a__125))) 0) (>= (+ (* b__236 a__130) (* (- 0 1) (* b__236 a__126))) 0) (>= (+ (* b__236 a__134) (* b__236 a__5 a__135) (* (- 0 1) (* b__236 a__139)) (* (- 0 1) (* b__236 a__143 a__140))) 0) (>= (+ (* b__236 a__136) (* (- 0 1) (* b__236 a__144 a__140))) 0) (>= (+ (* b__236 a__134) (* (- 0 1) (* b__236 a__131))) 0) (>= (+ (* b__236 a__135) (* (- 0 1) (* b__236 a__132))) 0) (>= (+ (* b__236 a__136) (* (- 0 1) (* b__236 a__133))) 0) (>= (+ (* b__236 a__139) (* b__236 a__5 a__140) (* (- 0 1) (* b__236 a__5))) 0) (>= (+ (* b__236 a__139) (* (- 0 1) (* b__236 a__137))) 0) (>= (+ (* b__236 a__140) (* (- 0 1) (* b__236 a__138))) 0) (>= (+ (* b__238 a__148) (* b__238 a__5 a__149) (* (- 0 1) (* b__238 a__153)) (* (- 0 1) (* b__238 a__30 a__154))) 0) (>= (+ (* b__238 a__150) (* (- 0 1) (* b__238 a__31 a__154))) 0) (>= (+ (* b__238 a__148) (* (- 0 1) (* b__238 a__145))) 0) (>= (+ (* b__238 a__149) (* (- 0 1) (* b__238 a__146))) 0) (>= (+ (* b__238 a__150) (* (- 0 1) (* b__238 a__147))) 0) (>= (+ (* b__238 a__153) (* b__238 a__5 a__154) (* (- 0 1) (* b__238 a__5))) 0) (>= (+ (* b__238 a__153) (* (- 0 1) (* b__238 a__151))) 0) (>= (+ (* b__238 a__154) (* (- 0 1) (* b__238 a__152))) 0) (>= (+ (* b__235 a__45) (* b__235 a__5 a__46) (* (- 0 1) (* b__235 a__5))) 0) (>= (+ (* b__235 a__45) (* (- 0 1) (* b__235 a__155))) 0) (>= (+ (* b__235 a__46) (* (- 0 1) (* b__235 a__156))) 0) (>= (+ (* b__235 a__47) (* b__235 a__5 a__48) (* (- 0 1) (* b__235 a__5))) 0) (>= (+ (* b__235 a__47) (* (- 0 1) (* b__235 a__157))) 0) (>= (+ (* b__235 a__48) (* (- 0 1) (* b__235 a__158))) 0) (>= (+ (* b__237 a__163) (* b__237 a__5 a__164) (* (- 0 1) (* b__237 a__171)) (* (- 0 1) (* b__237 a__15 a__172))) 0) (>= (+ (* b__237 a__165) (* (- 0 1) (* b__237 a__16 a__172)) (* (- 0 1) (* b__237 a__173))) 0) (>= (+ (* b__237 a__166) (* (- 0 1) (* b__237 a__174))) 0) (>= (+ (* b__237 a__163) (* (- 0 1) (* b__237 a__159))) 0) (>= (+ (* b__237 a__164) (* (- 0 1) (* b__237 a__160))) 0) (>= (+ (* b__237 a__165) (* (- 0 1) (* b__237 a__161))) 0) (>= (+ (* b__237 a__166) (* (- 0 1) (* b__237 a__162))) 0) (>= (+ (* b__237 a__171) (* b__237 a__5 a__172) (* (- 0 1) (* b__237 a__179)) (* (- 0 1) (* b__237 a__30 a__180))) 0) (>= (+ (* b__237 a__173) (* (- 0 1) (* b__237 a__181))) 0) (>= (+ (* b__237 a__174) (* (- 0 1) (* b__237 a__31 a__180)) (* (- 0 1) (* b__237 a__182))) 0) (>= (+ (* b__237 a__171) (* (- 0 1) (* b__237 a__167))) 0) (>= (+ (* b__237 a__172) (* (- 0 1) (* b__237 a__168))) 0) (>= (+ (* b__237 a__173) (* (- 0 1) (* b__237 a__169))) 0) (>= (+ (* b__237 a__174) (* (- 0 1) (* b__237 a__170))) 0) (>= (+ (* b__237 a__179) (* b__237 a__5 a__180) (* (- 0 1) (* b__237 a__187)) (* (- 0 1) (* b__237 a__30 a__188))) 0) (>= (+ (* b__237 a__181) (* (- 0 1) (* b__237 a__189))) 0) (>= (+ (* b__237 a__182) (* (- 0 1) (* b__237 a__31 a__188)) (* (- 0 1) (* b__237 a__190))) 0) (>= (+ (* b__237 a__179) (* (- 0 1) (* b__237 a__175))) 0) (>= (+ (* b__237 a__180) (* (- 0 1) (* b__237 a__176))) 0) (>= (+ (* b__237 a__181) (* (- 0 1) (* b__237 a__177))) 0) (>= (+ (* b__237 a__182) (* (- 0 1) (* b__237 a__178))) 0) (>= (+ (* b__237 a__187) (* b__237 a__5 a__188) (* (- 0 1) (* b__237 a__194)) (* (- 0 1) (* b__237 a__10 a__195))) 0) (>= (+ (* b__237 a__189) (* (- 0 1) (* b__237 a__11 a__195))) 0) (>= (+ (* b__237 a__190) (* (- 0 1) (* b__237 a__196))) 0) (>= (+ (* b__237 a__187) (* (- 0 1) (* b__237 a__183))) 0) (>= (+ (* b__237 a__188) (* (- 0 1) (* b__237 a__184))) 0) (>= (+ (* b__237 a__189) (* (- 0 1) (* b__237 a__185))) 0) (>= (+ (* b__237 a__190) (* (- 0 1) (* b__237 a__186))) 0) (>= (+ (* b__237 a__194) (* b__237 a__5 a__195) (* (- 0 1) (* b__237 a__199)) (* (- 0 1) (* b__237 a__28 a__200))) 0) (>= (+ (* b__237 a__196) (* (- 0 1) (* b__237 a__29 a__200))) 0) (>= (+ (* b__237 a__194) (* (- 0 1) (* b__237 a__191))) 0) (>= (+ (* b__237 a__195) (* (- 0 1) (* b__237 a__192))) 0) (>= (+ (* b__237 a__196) (* (- 0 1) (* b__237 a__193))) 0) (>= (+ (* b__237 a__199) (* b__237 a__5 a__200) (* (- 0 1) (* b__237 a__5))) 0) (>= (+ (* b__237 a__199) (* (- 0 1) (* b__237 a__197))) 0) (>= (+ (* b__237 a__200) (* (- 0 1) (* b__237 a__198))) 0) (>= (+ (* b__236 a__205) (* (- 0 1) (* b__236 a__201))) 0) (>= (+ (* b__236 a__206) (* (- 0 1) (* b__236 a__202))) 0) (>= (+ (* b__236 a__207) (* (- 0 1) (* b__236 a__203))) 0) (>= (+ (* b__236 a__208) (* (- 0 1) (* b__236 a__204))) 0) (>= (+ (* b__236 a__213) (* (- 0 1) (* b__236 a__209))) 0) (>= (+ (* b__236 a__214) (* (- 0 1) (* b__236 a__210))) 0) (>= (+ (* b__236 a__215) (* (- 0 1) (* b__236 a__211))) 0) (>= (+ (* b__236 a__216) (* (- 0 1) (* b__236 a__212))) 0) (>= (+ (* b__236 a__221) (* (- 0 1) (* b__236 a__217))) 0) (>= (+ (* b__236 a__222) (* (- 0 1) (* b__236 a__218))) 0) (>= (+ (* b__236 a__223) (* (- 0 1) (* b__236 a__219))) 0) (>= (+ (* b__236 a__224) (* (- 0 1) (* b__236 a__220))) 0) (>= (+ (* b__236 a__228) (* (- 0 1) (* b__236 a__225))) 0) (>= (+ (* b__236 a__229) (* (- 0 1) (* b__236 a__226))) 0) (>= (+ (* b__236 a__230) (* (- 0 1) (* b__236 a__227))) 0) (>= (+ (* b__236 a__231) (* b__236 a__233 a__232) (* (- 0 1) (* b__236 a__32))) 0) (>= (+ (* b__236 a__231) (* (- 0 1) (* b__236 a__33))) 0) (>= (+ (* b__236 a__232) (* (- 0 1) (* b__236 a__34))) 0) (>= (+ (* b__236 a__52) (* (- 0 1) (* b__236 a__21)) (* (- 0 1) (* b__236 a__32 a__22)) (* (- 0 1) (* b__236 a__51 a__23))) 0) (>= (+ (* b__236 a__52) (* (- 0 1) (* b__236 a__51))) 0) (>= (+ (* b__236 a__143) (* (- 0 1) (* b__236 a__86)) (* (- 0 1) (* b__236 a__30 a__87))) 0) (>= (+ (* b__236 a__144) (* (- 0 1) (* b__236 a__31 a__87)) (* (- 0 1) (* b__236 a__88))) 0) (>= (+ (* b__236 a__143) (* b__236 a__51 a__144) (* (- 0 1) (* b__236 a__5))) 0) (>= (+ (* b__236 a__143) (* b__236 a__21 a__144) (* (- 0 1) (* b__236 a__103)) (* (- 0 1) (* b__236 a__15 a__104))) 0) (>= (+ (* b__236 a__22 a__144) (* (- 0 1) (* b__236 a__16 a__104)) (* (- 0 1) (* b__236 a__105))) 0) (>= (+ (* b__236 a__23 a__144) (* (- 0 1) (* b__236 a__106))) 0) (>= (+ (* b__236 a__143) (* (- 0 1) (* b__236 a__141))) 0) (>= (+ (* b__236 a__144) (* (- 0 1) (* b__236 a__142))) 0) (>= (+ a__1 (* a__5 a__2) (* (- 0 1) a__6) (* (- 0 1) (* a__10 a__7))) 0) (>= (+ a__6 (* a__5 a__7) (* (- 0 1) a__12) (* (- 0 1) (* a__15 a__13))) 0) (>= (+ a__12 (* a__5 a__13) (* (- 0 1) a__17) (* (- 0 1) (* a__19 a__18))) 0) (>= (+ a__17 (* a__21 a__18) (* (- 0 1) a__24) (* (- 0 1) (* a__28 a__25))) 0) (>= (+ a__24 (* a__5 a__25) (* (- 0 1) a__1) (* (- 0 1) (* a__30 a__2))) 0) (not (and (= (+ a__1 (* a__5 a__2) (* (- 0 1) a__6) (* (- 0 1) (* a__10 a__7))) 0) (= (+ a__6 (* a__5 a__7) (* (- 0 1) a__12) (* (- 0 1) (* a__15 a__13))) 0) (= (+ a__12 (* a__5 a__13) (* (- 0 1) a__17) (* (- 0 1) (* a__19 a__18))) 0) (= (+ a__17 (* a__21 a__18) (* (- 0 1) a__24) (* (- 0 1) (* a__28 a__25))) 0) (= (+ a__24 (* a__5 a__25) (* (- 0 1) a__1) (* (- 0 1) (* a__30 a__2))) 0))) (>= b__234 0) (>= 1 b__234) (>= a__18 0) (>= a__7 0) (>= a__25 0) (>= a__195 0) (>= b__235 0) (>= 1 b__235) (>= a__13 0) (>= a__164 0) (>= a__172 0) (>= a__2 0) (>= a__149 0) (>= a__41 0) (>= a__77 0) (>= a__180 0) (>= a__188 0) (>= a__36 0) (>= a__60 0) (>= a__67 0) (>= b__236 0) (>= 1 b__236) (>= b__237 0) (>= 1 b__237) (>= b__238 0) (>= 1 b__238) (>= a__46 0) (>= a__3 0) (>= a__8 0) (>= a__4 0) (>= a__11 0) (>= a__9 0) (>= a__14 0) (>= a__16 0) (>= a__20 0) (>= a__22 0) (>= a__27 0) (>= a__23 0) (>= a__29 0) (>= a__26 0) (>= a__31 0) (>= a__10 0) (>= a__32 0) (>= a__5 0) (>= a__33 0) (>= a__35 0) (>= a__30 0) (>= a__34 0) (>= a__37 0) (>= a__38 0) (>= a__40 0) (>= a__15 0) (>= a__39 0) (>= a__42 0) (>= a__43 0) (>= a__44 0) (>= a__45 0) (>= a__47 0) (>= a__48 0) (>= a__49 0) (>= a__50 0) (>= a__19 0) (>= a__51 0) (>= a__52 0) (>= a__53 0) (>= a__54 0) (>= a__55 0) (>= a__56 0) (>= a__59 0) (>= a__57 0) (>= a__58 0) (>= a__61 0) (>= a__62 0) (>= a__63 0) (>= a__64 0) (>= a__66 0) (>= a__65 0) (>= a__68 0) (>= a__28 0) (>= a__69 0) (>= a__70 0) (>= a__71 0) (>= a__72 0) (>= a__73 0) (>= a__76 0) (>= a__74 0) (>= a__75 0) (>= a__78 0) (>= a__79 0) (>= a__81 0) (>= a__82 0) (>= a__80 0) (>= a__83 0) (>= a__86 0) (>= a__87 0) (>= a__84 0) (>= a__85 0) (>= a__88 0) (>= a__89 0) (>= a__92 0) (>= a__93 0) (>= a__90 0) (>= a__91 0) (>= a__94 0) (>= a__95 0) (>= a__97 0) (>= a__98 0) (>= a__96 0) (>= a__99 0) (>= a__103 0) (>= a__104 0) (>= a__100 0) (>= a__101 0) (>= a__105 0) (>= a__102 0) (>= a__106 0) (>= a__107 0) (>= a__111 0) (>= a__112 0) (>= a__108 0) (>= a__109 0) (>= a__113 0) (>= a__110 0) (>= a__114 0) (>= a__115 0) (>= a__119 0) (>= a__120 0) (>= a__116 0) (>= a__117 0) (>= a__121 0) (>= a__118 0) (>= a__122 0) (>= a__123 0) (>= a__127 0) (>= a__128 0) (>= a__124 0) (>= a__125 0) (>= a__129 0) (>= a__126 0) (>= a__130 0) (>= a__131 0) (>= a__134 0) (>= a__135 0) (>= a__132 0) (>= a__133 0) (>= a__136 0) (>= a__137 0) (>= a__139 0) (>= a__140 0) (>= a__138 0) (>= a__141 0) (>= a__143 0) (>= a__142 0) (>= a__144 0) (>= a__145 0) (>= a__148 0) (>= a__146 0) (>= a__147 0) (>= a__150 0) (>= a__151 0) (>= a__153 0) (>= a__154 0) (>= a__152 0) (>= a__155 0) (>= a__156 0) (>= a__157 0) (>= a__158 0) (>= a__159 0) (>= a__163 0) (>= a__160 0) (>= a__161 0) (>= a__165 0) (>= a__162 0) (>= a__166 0) (>= a__167 0) (>= a__171 0) (>= a__168 0) (>= a__169 0) (>= a__173 0) (>= a__170 0) (>= a__174 0) (>= a__175 0) (>= a__179 0) (>= a__176 0) (>= a__177 0) (>= a__181 0) (>= a__178 0) (>= a__182 0) (>= a__183 0) (>= a__187 0) (>= a__184 0) (>= a__185 0) (>= a__189 0) (>= a__186 0) (>= a__190 0) (>= a__191 0) (>= a__194 0) (>= a__192 0) (>= a__193 0) (>= a__196 0) (>= a__197 0) (>= a__199 0) (>= a__200 0) (>= a__198 0) (>= a__201 0) (>= a__205 0) (>= a__206 0) (>= a__202 0) (>= a__203 0) (>= a__207 0) (>= a__204 0) (>= a__208 0) (>= a__209 0) (>= a__213 0) (>= a__214 0) (>= a__210 0) (>= a__211 0) (>= a__215 0) (>= a__212 0) (>= a__216 0) (>= a__217 0) (>= a__221 0) (>= a__222 0) (>= a__218 0) (>= a__219 0) (>= a__223 0) (>= a__220 0) (>= a__224 0) (>= a__225 0) (>= a__228 0) (>= a__229 0) (>= a__226 0) (>= a__227 0) (>= a__230 0) (>= a__231 0) (>= a__232 0) (>= a__21 0) (>= a__233 0) (>= a__1 0) (>= a__6 0) (>= a__12 0) (>= a__17 0) (>= a__24 0)))
(check-sat)
;;(get-assignment)
;;(get-model)
(exit)
